;; produced by z3_gnatprove.drv ;;
(set-info :smt-lib-version 2.5)
(set-info :source |VC generated by SPARK 2014|)
(set-info :category industrial)
(set-info :status unknown)
;;; generated by SMT-LIB2 driver
;;; SMT-LIB2 driver: bit-vectors, common part
;;; SMT-LIB2: integer arithmetic
(declare-sort string 0)

(declare-datatypes () ((tuple0 (Tuple0))))
(declare-sort us_private 0)

(declare-fun private__bool_eq (us_private us_private) Bool)

(declare-const us_null_ext__ us_private)

(declare-sort us_type_of_heap 0)

(declare-datatypes ()
((us_type_of_heap__ref
 (us_type_of_heap__refqtmk (us_type_of_heap__content us_type_of_heap)))))
(declare-sort us_image 0)

(declare-datatypes () ((int__ref (int__refqtmk (int__content Int)))))
(declare-datatypes () ((bool__ref (bool__refqtmk (bool__content Bool)))))
(declare-datatypes ()
((us_fixed__ref (us_fixed__refqtmk (us_fixed__content Int)))))
(declare-datatypes () ((real__ref (real__refqtmk (real__content Real)))))
(declare-datatypes ()
((us_private__ref (us_private__refqtmk (us_private__content us_private)))))
(define-fun int__ref___projection ((a int__ref)) Int (int__content a))

(define-fun us_fixed__ref___projection ((a us_fixed__ref)) Int (us_fixed__content
                                                               a))

(define-fun bool__ref___projection ((a bool__ref)) Bool (bool__content a))

(define-fun real__ref___projection ((a real__ref)) Real (real__content a))

(define-fun us_private__ref___projection ((a us_private__ref)) us_private 
  (us_private__content a))

(declare-sort positive 0)

(declare-fun positiveqtint (positive) Int)

;; positive'axiom
  (assert
  (forall ((i positive))
  (and (<= 1 (positiveqtint i)) (<= (positiveqtint i) 2147483647))))

(define-fun in_range ((x Int)) Bool (and (<= 1 x) (<= x 2147483647)))

(declare-fun attr__ATTRIBUTE_IMAGE (Int) us_image)

(declare-fun attr__ATTRIBUTE_VALUE__pre_check (us_image) Bool)

(declare-fun attr__ATTRIBUTE_VALUE (us_image) Int)

(declare-fun user_eq (positive positive) Bool)

(declare-const dummy positive)

(declare-datatypes ()
((positive__ref (positive__refqtmk (positive__content positive)))))
(define-fun positive__ref_positive__content__projection ((a positive__ref)) positive 
  (positive__content a))

(declare-sort integer 0)

(declare-fun integerqtint (integer) Int)

;; integer'axiom
  (assert
  (forall ((i integer))
  (and (<= (- 2147483648) (integerqtint i)) (<= (integerqtint i) 2147483647))))

(define-fun in_range1 ((x Int)) Bool (and (<= (- 2147483648) x)
                                     (<= x 2147483647)))

(declare-fun attr__ATTRIBUTE_IMAGE1 (Int) us_image)

(declare-fun attr__ATTRIBUTE_VALUE__pre_check1 (us_image) Bool)

(declare-fun attr__ATTRIBUTE_VALUE1 (us_image) Int)

(declare-fun user_eq1 (integer integer) Bool)

(declare-const dummy1 integer)

(declare-datatypes ()
((integer__ref (integer__refqtmk (integer__content integer)))))
(define-fun integer__ref_integer__content__projection ((a integer__ref)) integer 
  (integer__content a))

(define-fun to_rep ((x integer)) Int (integerqtint x))

(declare-fun of_rep (Int) integer)

;; inversion_axiom
  (assert
  (forall ((x integer)) (! (= (of_rep (to_rep x)) x) :pattern ((to_rep x)) )))

;; range_axiom
  (assert
  (forall ((x integer)) (! (in_range1 (to_rep x)) :pattern ((to_rep x)) )))

;; coerce_axiom
  (assert
  (forall ((x Int))
  (! (=> (in_range1 x) (= (to_rep (of_rep x)) x)) :pattern ((to_rep
                                                            (of_rep x))) )))

(declare-sort natural 0)

(declare-fun naturalqtint (natural) Int)

;; natural'axiom
  (assert
  (forall ((i natural))
  (and (<= 0 (naturalqtint i)) (<= (naturalqtint i) 2147483647))))

(define-fun in_range2 ((x Int)) Bool (and (<= 0 x) (<= x 2147483647)))

(declare-fun attr__ATTRIBUTE_IMAGE2 (Int) us_image)

(declare-fun attr__ATTRIBUTE_VALUE__pre_check2 (us_image) Bool)

(declare-fun attr__ATTRIBUTE_VALUE2 (us_image) Int)

(declare-fun user_eq2 (natural natural) Bool)

(declare-const dummy2 natural)

(declare-datatypes ()
((natural__ref (natural__refqtmk (natural__content natural)))))
(define-fun natural__ref_natural__content__projection ((a natural__ref)) natural 
  (natural__content a))

(define-fun to_rep1 ((x natural)) Int (naturalqtint x))

(declare-fun of_rep1 (Int) natural)

;; inversion_axiom
  (assert
  (forall ((x natural))
  (! (= (of_rep1 (to_rep1 x)) x) :pattern ((to_rep1 x)) )))

;; range_axiom
  (assert
  (forall ((x natural)) (! (in_range2 (to_rep1 x)) :pattern ((to_rep1 x)) )))

;; coerce_axiom
  (assert
  (forall ((x Int))
  (! (=> (in_range2 x) (= (to_rep1 (of_rep1 x)) x)) :pattern ((to_rep1
                                                              (of_rep1 x))) )))

(declare-sort map1 0)

(declare-datatypes () ((map__ref (map__refqtmk (map__content map1)))))
(declare-fun get (map1 Int Int) natural)

(declare-fun set (map1 Int Int natural) map1)

;; Select_eq
  (assert
  (forall ((m map1))
  (forall ((i Int))
  (forall ((j Int))
  (forall ((a natural))
  (! (= (get (set m i j a) i j) a) :pattern ((set m i j a)) ))))))

;; Select_neq
  (assert
  (forall ((m map1))
  (forall ((i Int) (i2 Int))
  (forall ((j Int) (j2 Int))
  (forall ((a natural))
  (! (=> (not (and (= i i2) (= j j2)))
     (= (get (set m i j a) i2 j2) (get m i2 j2))) :pattern ((get
                                                            (set m i j a) i2
                                                            j2)) :pattern (
  (set m i j a) (get m i2 j2)) ))))))

(declare-fun slide (map1 Int Int Int Int) map1)

;; slide_def
  (assert
  (forall ((a map1))
  (forall ((new_first Int) (old_first Int))
  (forall ((new_first_2 Int) (old_first_2 Int))
  (forall ((i Int))
  (forall ((j Int))
  (! (= (get (slide a old_first new_first old_first_2 new_first_2) i j) 
  (get a (- i (- new_first old_first)) (- j (- new_first_2 old_first_2)))) :pattern (
  (get (slide a old_first new_first old_first_2 new_first_2) i j)) )))))))

(define-fun bool_eq ((a map1) (a__first Int) (a__last Int) (a__first_2 Int)
  (a__last_2 Int) (b map1) (b__first Int) (b__last Int) (b__first_2 Int)
  (b__last_2 Int)) Bool (ite (and
                             (and
                             (ite (<= a__first a__last)
                             (and (<= b__first b__last)
                             (= (- a__last a__first) (- b__last b__first)))
                             (< b__last b__first))
                             (ite (<= a__first_2 a__last_2)
                             (and (<= b__first_2 b__last_2)
                             (= (- a__last_2 a__first_2) (- b__last_2 b__first_2)))
                             (< b__last_2 b__first_2)))
                             (forall ((temp___idx_154 Int)
                             (temp___idx_155 Int))
                             (=>
                             (and
                             (and (<= a__first temp___idx_154)
                             (<= temp___idx_154 a__last))
                             (and (<= a__first_2 temp___idx_155)
                             (<= temp___idx_155 a__last_2)))
                             (= (to_rep1
                                (get a temp___idx_154 temp___idx_155)) 
                             (to_rep1
                             (get b (+ (- b__first a__first) temp___idx_154)
                             (+ (- b__first_2 a__first_2) temp___idx_155)))))))
                        true false))

;; bool_eq_rev
  (assert
  (forall ((a map1) (b map1))
  (forall ((a__first Int) (a__last Int) (a__first_2 Int) (a__last_2 Int)
  (b__first Int) (b__last Int) (b__first_2 Int) (b__last_2 Int))
  (=>
  (= (bool_eq b b__first b__last b__first_2 b__last_2 a a__first a__last
     a__first_2 a__last_2) true)
  (and
  (and
  (ite (<= a__first a__last)
  (and (<= b__first b__last) (= (- a__last a__first) (- b__last b__first)))
  (< b__last b__first))
  (ite (<= a__first_2 a__last_2)
  (and (<= b__first_2 b__last_2)
  (= (- a__last_2 a__first_2) (- b__last_2 b__first_2)))
  (< b__last_2 b__first_2)))
  (forall ((temp___idx_154 Int) (temp___idx_155 Int))
  (=>
  (and (and (<= a__first temp___idx_154) (<= temp___idx_154 a__last))
  (and (<= a__first_2 temp___idx_155) (<= temp___idx_155 a__last_2)))
  (= (to_rep1 (get a temp___idx_154 temp___idx_155)) (to_rep1
                                                     (get b
                                                     (+ (- b__first a__first) temp___idx_154)
                                                     (+ (- b__first_2 a__first_2) temp___idx_155)))))))))))

(declare-sort t 0)

(declare-fun first (t) integer)

(declare-fun last (t) integer)

(declare-fun mk (Int Int) t)

;; mk_def
  (assert
  (forall ((f Int) (l Int))
  (! (=> (in_range1 f)
     (=> (in_range1 l)
     (and (= (to_rep (first (mk f l))) f) (= (to_rep (last (mk f l))) l)))) :pattern (
  (mk f l)) )))

(define-fun dynamic_property ((range_first Int) (range_last Int) (low Int)
  (high Int)) Bool (and (in_range1 low)
                   (and (in_range1 high)
                   (=> (<= low high) (and (in_range low) (in_range high))))))

(declare-sort t1 0)

(declare-fun first1 (t1) integer)

(declare-fun last1 (t1) integer)

(declare-fun mk1 (Int Int) t1)

;; mk_def
  (assert
  (forall ((f Int) (l Int))
  (! (=> (in_range1 f)
     (=> (in_range1 l)
     (and (= (to_rep (first1 (mk1 f l))) f) (= (to_rep (last1 (mk1 f l))) l)))) :pattern (
  (mk1 f l)) )))

(define-fun dynamic_property1 ((range_first Int) (range_last Int) (low Int)
  (high Int)) Bool (and (in_range1 low)
                   (and (in_range1 high)
                   (=> (<= low high) (and (in_range low) (in_range high))))))

(declare-datatypes () ((us_t (us_tqtmk (elts map1)(rt t)(rt_2 t1)))))
(define-fun to_array ((a us_t)) map1 (elts a))

(define-fun of_array ((a map1) (f Int) (l Int) (f2 Int)
  (l2 Int)) us_t (us_tqtmk a (mk f l) (mk1 f2 l2)))

(define-fun first2 ((a us_t)) Int (to_rep (first (rt a))))

(define-fun last2 ((a us_t)) Int (to_rep (last (rt a))))

(define-fun length ((a us_t)) Int (ite (<= (first2 a) (last2 a))
                                  (+ (- (last2 a) (first2 a)) 1) 0))

(define-fun first_2 ((a us_t)) Int (to_rep (first1 (rt_2 a))))

(define-fun last_2 ((a us_t)) Int (to_rep (last1 (rt_2 a))))

(define-fun length_2 ((a us_t)) Int (ite (<= (first_2 a) (last_2 a))
                                    (+ (- (last_2 a) (first_2 a)) 1) 0))

(define-fun dynamic_property2 ((range_first1 Int) (range_last1 Int) (f1 Int)
  (l1 Int) (range_first2 Int) (range_last2 Int) (f2 Int)
  (l2 Int)) Bool (and (dynamic_property range_first1 range_last1 f1 l1)
                 (dynamic_property1 range_first2 range_last2 f2 l2)))

(declare-const value__size Int)

(declare-const object__size Int)

(declare-const component__size Int)

(declare-const alignment Int)

;; value__size_axiom
  (assert (<= 0 value__size))

;; object__size_axiom
  (assert (<= 0 object__size))

;; component__size_axiom
  (assert (<= 0 component__size))

;; alignment_axiom
  (assert (<= 0 alignment))

(define-fun bool_eq1 ((x us_t)
  (y us_t)) Bool (bool_eq (elts x) (to_rep (first (rt x)))
                 (to_rep (last (rt x))) (to_rep (first1 (rt_2 x)))
                 (to_rep (last1 (rt_2 x))) (elts y) (to_rep (first (rt y)))
                 (to_rep (last (rt y))) (to_rep (first1 (rt_2 y)))
                 (to_rep (last1 (rt_2 y)))))

(declare-fun user_eq3 (us_t us_t) Bool)

(declare-const dummy3 us_t)

(declare-datatypes () ((m__ref (m__refqtmk (m__content us_t)))))
(define-fun m__ref_m__content__projection ((a m__ref)) us_t (m__content a))

(define-fun dynamic_invariant ((temp___expr_46 Int) (temp___is_init_42 Bool)
  (temp___skip_constant_43 Bool) (temp___do_toplevel_44 Bool)
  (temp___do_typ_inv_45 Bool)) Bool (=>
                                    (or (= temp___is_init_42 true)
                                    (<= 1 2147483647)) (in_range
                                    temp___expr_46)))

(declare-fun new_m (Int Int Int Int) us_t)

(declare-fun new_m__function_guard (us_t Int Int Int Int) Bool)

(define-fun dynamic_invariant1 ((temp___expr_161 us_t)
  (temp___is_init_157 Bool) (temp___skip_constant_158 Bool)
  (temp___do_toplevel_159 Bool)
  (temp___do_typ_inv_160 Bool)) Bool (=>
                                     (not (= temp___skip_constant_158 true))
                                     (dynamic_property2 1 2147483647
                                     (first2 temp___expr_161)
                                     (last2 temp___expr_161) 1 2147483647
                                     (first_2 temp___expr_161)
                                     (last_2 temp___expr_161))))

(declare-datatypes () ((t7s__ref (t7s__refqtmk (t7s__content us_t)))))
(define-fun t7s__ref_t7s__content__projection ((a t7s__ref)) us_t (t7s__content
                                                                  a))

(declare-fun temp_____aggregate_def_166 (Int Int Int Int Int) us_t)

;; new_m__post_axiom
  (assert
  (forall ((f1 Int) (l1 Int) (f2 Int) (l2 Int))
  (! (=>
     (and
     (and
     (and (dynamic_invariant f1 true true true true) (dynamic_invariant l1
     true true true true)) (dynamic_invariant f2 true true true true))
     (dynamic_invariant l2 true true true true))
     (let ((result (new_m f1 l1 f2 l2)))
     (=> (new_m__function_guard result f1 l1 f2 l2) (dynamic_invariant1
     result true false true true)))) :pattern ((new_m f1 l1 f2 l2)) )))

;; new_m__def_axiom
  (assert
  (forall ((f1 Int) (l1 Int) (f2 Int) (l2 Int))
  (! (=>
     (and
     (and
     (and (dynamic_invariant f1 true true true true) (dynamic_invariant l1
     true true true true)) (dynamic_invariant f2 true true true true))
     (dynamic_invariant l2 true true true true))
     (= (new_m f1 l1 f2 l2) (let ((temp___178 (temp_____aggregate_def_166 0
                                              f1 l1 f2 l2)))
                            (of_array (to_array temp___178)
                            (first2 temp___178) (last2 temp___178)
                            (first_2 temp___178) (last_2 temp___178))))) :pattern (
  (new_m f1 l1 f2 l2)) )))

(declare-const a__first integer)

(declare-const a__last integer)

(declare-const a__first_2 integer)

(declare-const a__last_2 integer)

(declare-const attr__ATTRIBUTE_ADDRESS Int)

(define-fun dynamic_invariant2 ((temp___expr_39 Int) (temp___is_init_35 Bool)
  (temp___skip_constant_36 Bool) (temp___do_toplevel_37 Bool)
  (temp___do_typ_inv_38 Bool)) Bool (=>
                                    (or (= temp___is_init_35 true)
                                    (<= 0 2147483647)) (in_range2
                                    temp___expr_39)))

(define-fun dynamic_invariant3 ((temp___expr_18 Int) (temp___is_init_14 Bool)
  (temp___skip_constant_15 Bool) (temp___do_toplevel_16 Bool)
  (temp___do_typ_inv_17 Bool)) Bool (=>
                                    (or (= temp___is_init_14 true)
                                    (<= (- 2147483648) 2147483647))
                                    (in_range1 temp___expr_18)))

(declare-const rliteral natural)

;; rliteral_axiom
  (assert (= (naturalqtint rliteral) 0))

;; def_axiom
  (assert
  (forall ((temp___168 Int) (temp___169 Int) (temp___170 Int)
  (temp___171 Int) (temp___172 Int))
  (let ((temp___167 (temp_____aggregate_def_166 temp___168 temp___169
                    temp___170 temp___171 temp___172)))
  (=> (dynamic_invariant2 temp___168 true true true true)
  (and
  (=> (dynamic_property2 1 2147483647 temp___169 temp___170 1 2147483647
  temp___171 temp___172)
  (and
  (and (= (first_2 temp___167) temp___171)
  (= (last_2 temp___167) temp___172))
  (and (= (first2 temp___167) temp___169) (= (last2 temp___167) temp___170))))
  (forall ((temp___173 Int) (temp___174 Int))
  (= (get (to_array temp___167) temp___173 temp___174) rliteral)))))))

(define-fun array_types__a__assume () us_t (new_m 1 3 2 5))

;; H
  (assert (new_m__function_guard array_types__a__assume 1 3 2 5))

;; H
  (assert (dynamic_invariant1 array_types__a__assume true false true true))

;; H
  (assert
  (= array_types__a__assume (let ((temp___175 (temp_____aggregate_def_166 0 1
                                              3 2 5)))
                            (of_array (to_array temp___175)
                            (first2 temp___175) (last2 temp___175)
                            (first_2 temp___175) (last_2 temp___175)))))

(declare-const a map1)

;; H
  (assert (= a (to_array array_types__a__assume)))

;; Assume
  (assert (= (to_rep a__first) (first2 array_types__a__assume)))

;; Assume
  (assert (= (to_rep a__last) (last2 array_types__a__assume)))

;; Assume
  (assert (= (to_rep a__first_2) (first_2 array_types__a__assume)))

;; Assume
  (assert (= (to_rep a__last_2) (last_2 array_types__a__assume)))

;; Assume
  (assert (dynamic_property2 1 2147483647 (to_rep a__first) (to_rep a__last)
  1 2147483647 (to_rep a__first_2) (to_rep a__last_2)))

(assert
;; defqtvc
 ;; File "array_types.ads", line 1, characters 0-0
  (not (= (to_rep a__first) (to_rep a__first_2))))
(check-sat)
